% int: N; % number of cities
N = 10;

% array[1..N] of set of int: edges;
edges = [{2, 3, 4}, % 1
         {1, 3, 4}, % 2
	 {1, 2, 5, 6}, % 3
	 {1, 2, 5, 6, 7}, % 4
	 {3, 4, 7}, % 5
	 {3, 4, 8}, % 6
	 {4, 5, 8, 9}, % 7
	 {6, 7, 9, 10}, % 8
	 {7, 8, 10}, % 9
	 {8, 9} %10
	 ];

% array[1..N, 1..N] of int: distance;
%	      1  2   3   4  5   6   7   8  9  10
 distance = [|0, 10, 11, 6, 0,  0,  0,  0, 0, 0 % 1
 	    |10, 0,  5,  8, 0,  0,  0,  0, 0, 0  % 2
 	    |11, 5,  0,  0, 3,  5,  0,  0, 0, 0  % 3
 	    | 6, 8,  0,  0, 2,  6,  7,  0, 0, 0  % 4
 	    | 0, 0,  3,  2, 0,  0, 12,  0, 0, 0  % 5
 	    | 0, 0,  5,  6, 0,  0,  0, 14, 0, 0  % 6
 	    | 0, 0,  0,  7,12,  0,  0,  5, 3, 0  % 7
 	    | 0, 0,  0,  0, 0, 14,  5,  0, 1, 9  % 8
 	    | 0, 0,  0,  0, 0,  0,  3,  1, 0, 2  % 9
 	    | 0, 0,  0,  0, 0,  0,  0,  9, 2, 0  % 10
 |];

% array[1..N] of int: price;
price = [10, 10, 8, 12, 13, 9, 10, 11, 12, 8];

% int: tank_capacity;
tank_capacity = 10;

% int: start;
start = 1;

% int: end;
end = 10;
